data;


param d:= 100;
param r:=5;
param p:=0.820000;
param M:=1000;
param U:=
         1         1        4.279034e-01
         2         1        1.289420e-01
         3         1       -1.138353e+00
         4         1        5.623757e-01
         5         1        8.810762e-01
         6         1       -3.756365e-01
         7         1        2.697295e-01
         8         1       -9.281897e-01
         9         1        4.543081e-01
        10         1        5.877535e-01
        11         1        3.055513e-02
        12         1       -1.493577e+00
        13         1       -2.266251e-01
        14         1        8.288989e-01
        15         1        6.028613e-01
        16         1        1.975731e-01
        17         1       -4.519540e-01
        18         1        8.899772e-01
        19         1        4.980766e-01
        20         1       -8.787950e-01
        21         1        3.626282e-01
        22         1       -1.062080e-01
        23         1       -1.023105e+00
        24         1       -2.024563e-01
        25         1       -5.245625e-01
        26         1        7.086574e-01
        27         1       -8.836685e-01
        28         1        7.903379e-03
        29         1       -1.861834e-01
        30         1        1.030104e+00
        31         1       -1.119969e+00
        32         1        1.862880e-01
        33         1       -1.600627e-01
        34         1        1.031222e+00
        35         1       -8.418559e-01
        36         1       -1.570797e+00
        37         1       -1.876804e+00
        38         1       -2.378105e-01
        39         1       -1.671702e+00
        40         1       -1.342931e+00
        41         1       -9.302695e-01
        42         1       -9.964352e-01
        43         1       -3.665796e-01
        44         1        5.632756e-01
        45         1        9.631041e-01
        46         1        3.334912e-01
        47         1        5.288619e-01
        48         1       -1.489137e+00
        49         1        9.596053e-01
        50         1        1.484040e-01
        51         1        4.343695e-01
        52         1        1.322299e+00
        53         1        1.167908e+00
        54         1        3.319947e-01
        55         1        1.039432e-01
        56         1        5.467048e-01
        57         1       -1.657442e-01
        58         1       -9.191249e-01
        59         1       -7.184264e-01
        60         1        7.525653e-01
        61         1        4.543583e-01
        62         1        1.144295e+00
        63         1       -6.428734e-01
        64         1       -1.392337e-01
        65         1       -1.117890e+00
        66         1        5.847369e-01
        67         1        1.344596e+00
        68         1        2.107658e+00
        69         1        1.182734e+00
        70         1        3.502680e-01
        71         1        1.700148e+00
        72         1       -6.013662e-01
        73         1        1.110841e+00
        74         1        1.392514e-01
        75         1       -1.423989e+00
        76         1        4.410902e-01
        77         1       -8.157222e-02
        78         1        2.432928e-01
        79         1       -6.092993e-01
        80         1        1.264749e+00
        81         1        4.804098e-01
        82         1       -1.076072e-01
        83         1        1.254212e-01
        84         1        2.267035e-01
        85         1       -2.995728e-01
        86         1       -1.265356e+00
        87         1       -5.490198e-01
        88         1        3.864210e-01
        89         1       -5.179401e-01
        90         1        9.927504e-02
        91         1        1.011669e+00
        92         1       -2.743770e+00
        93         1       -9.028244e-01
        94         1        1.578093e+00
        95         1       -4.548875e-01
        96         1       -3.569175e-01
        97         1       -1.242762e+00
        98         1       -1.637835e-01
        99         1       -2.797137e-01
       100         1       -1.129108e+00
         1         2        2.093088e+00
         2         2       -1.466409e-01
         3         2        5.517194e-01
         4         2        2.176530e+00
         5         2        1.378834e+00
         6         2       -4.575620e-01
         7         2        3.067081e-01
         8         2       -1.978848e-02
         9         2        4.979910e-01
        10         2       -5.951464e-01
        11         2        3.399546e-01
        12         2       -7.789989e-02
        13         2       -1.324966e+00
        14         2       -6.374311e-02
        15         2        1.489319e+00
        16         2        3.275612e-01
        17         2        5.675980e-01
        18         2        2.406211e-01
        19         2        6.723789e-02
        20         2        8.836703e-02
        21         2        7.062582e-01
        22         2        4.320032e-01
        23         2       -1.994750e-01
        24         2       -4.129828e-02
        25         2       -1.195536e+00
        26         2        7.927576e-01
        27         2       -7.996343e-01
        28         2        8.251108e-01
        29         2       -2.205823e-01
        30         2       -6.257937e-02
        31         2        3.242741e-01
        32         2        4.007026e-01
        33         2       -8.609933e-01
        34         2        3.794491e-01
        35         2       -2.182342e-01
        36         2        6.176077e-01
        37         2        3.024362e-01
        38         2        6.301918e-01
        39         2        5.376311e-01
        40         2        1.950218e+00
        41         2        4.512911e-02
        42         2        3.809441e-01
        43         2       -5.135572e-01
        44         2        2.831931e-01
        45         2       -1.740825e+00
        46         2        1.801565e+00
        47         2       -8.134671e-01
        48         2        1.867331e-01
        49         2        7.293995e-01
        50         2        3.944128e-01
        51         2        5.730487e-01
        52         2        4.082388e-01
        53         2        6.266169e-01
        54         2        3.045278e-01
        55         2        5.641233e-01
        56         2       -7.258532e-01
        57         2       -2.329397e-01
        58         2       -5.376825e-01
        59         2       -1.143506e+00
        60         2        5.320497e-01
        61         2        2.159406e+00
        62         2        1.408470e+00
        63         2        9.515227e-01
        64         2       -6.017976e-01
        65         2        1.841358e+00
        66         2       -9.629602e-01
        67         2       -1.427396e+00
        68         2       -4.216480e-01
        69         2       -1.514621e-01
        70         2       -1.821685e+00
        71         2       -1.109075e-03
        72         2       -3.072287e-01
        73         2        3.846681e-01
        74         2       -1.297743e+00
        75         2       -4.703537e-01
        76         2        1.176555e-01
        77         2       -3.992481e-01
        78         2       -8.354593e-01
        79         2        3.732554e-01
        80         2        1.340483e-01
        81         2       -6.593768e-01
        82         2       -1.537396e+00
        83         2        1.507699e+00
        84         2       -2.364523e-01
        85         2       -5.994543e-01
        86         2        1.444974e+00
        87         2       -4.680879e-01
        88         2        1.101368e+00
        89         2       -3.085397e-02
        90         2       -5.085756e-01
        91         2        1.418625e+00
        92         2        6.916463e-01
        93         2        5.636236e-01
        94         2       -7.102862e-01
        95         2       -6.149560e-01
        96         2       -3.762217e-01
        97         2        4.888627e-01
        98         2       -8.515588e-01
        99         2        5.799475e-01
       100         2       -7.951149e-01
         1         3        6.758594e-01
         2         3       -1.258209e+00
         3         3       -6.636188e-01
         4         3        1.567979e+00
         5         3       -1.599616e+00
         6         3        1.658346e+00
         7         3        1.821831e+00
         8         3       -2.111588e+00
         9         3       -2.629095e-01
        10         3        2.345925e-01
        11         3        3.645165e-01
        12         3       -5.252101e-02
        13         3        9.852211e-01
        14         3       -1.320373e+00
        15         3       -3.655842e-01
        16         3        6.468822e-01
        17         3       -9.331689e-01
        18         3       -1.002892e+00
        19         3       -1.777331e-01
        20         3       -3.670573e-01
        21         3        1.804556e-01
        22         3       -1.535528e+00
        23         3       -1.334766e+00
        24         3        1.145333e+00
        25         3       -2.328834e-01
        26         3        1.310597e+00
        27         3       -1.164831e+00
        28         3       -5.576284e-01
        29         3        7.623007e-02
        30         3       -2.058828e-01
        31         3        1.364349e+00
        32         3       -9.032755e-01
        33         3       -1.800320e-01
        34         3        2.757619e+00
        35         3        5.337805e-01
        36         3       -1.099764e-01
        37         3        1.589560e-01
        38         3       -1.731202e-01
        39         3        7.806071e-02
        40         3       -5.966642e-02
        41         3        1.623637e+00
        42         3       -4.894447e-02
        43         3        1.467926e+00
        44         3       -4.864014e-01
        45         3        1.842727e-01
        46         3       -8.148515e-01
        47         3        3.251220e-01
        48         3       -4.698653e-01
        49         3        5.045122e-01
        50         3       -6.434596e-03
        51         3        2.225349e-01
        52         3       -7.776190e-01
        53         3       -9.597524e-01
        54         3       -1.595851e+00
        55         3        1.217603e-01
        56         3       -6.096227e-01
        57         3        1.306239e+00
        58         3        9.355142e-01
        59         3        1.443625e+00
        60         3        1.077041e+00
        61         3        1.889738e-01
        62         3       -1.683852e+00
        63         3        7.596316e-01
        64         3        4.178205e-01
        65         3        1.366994e+00
        66         3       -7.535309e-01
        67         3        1.570789e+00
        68         3       -1.250245e+00
        69         3       -9.528346e-01
        70         3        3.597341e-01
        71         3       -3.445700e+00
        72         3       -1.448522e+00
        73         3       -3.206594e-01
        74         3        9.264460e-01
        75         3       -7.179180e-01
        76         3        1.101551e+00
        77         3       -2.651184e-01
        78         3        2.288221e-01
        79         3        1.030748e-01
        80         3       -1.268853e+00
        81         3        3.478915e-01
        82         3        4.017588e-01
        83         3        7.317218e-02
        84         3       -1.492241e+00
        85         3       -9.703006e-01
        86         3       -3.806246e-01
        87         3       -4.843900e-01
        88         3       -1.327172e+00
        89         3       -1.990598e+00
        90         3       -3.019884e-01
        91         3       -9.974348e-01
        92         3        3.120373e-01
        93         3       -1.162600e+00
        94         3       -3.495536e-01
        95         3        8.014754e-01
        96         3       -4.093324e-01
        97         3       -1.424160e+00
        98         3       -1.225920e+00
        99         3       -9.742912e-01
       100         3        8.044975e-01
         1         4        1.447674e+00
         2         4        1.289774e+00
         3         4        1.110012e+00
         4         4        7.242602e-01
         5         4       -4.441224e-01
         6         4       -1.099550e+00
         7         4        1.890479e+00
         8         4       -4.990760e-01
         9         4        1.632314e-01
        10         4       -1.416933e+00
        11         4       -1.966432e-01
        12         4       -1.768371e-01
        13         4       -7.906554e-01
        14         4       -7.374122e-01
        15         4       -1.163428e+00
        16         4        1.391972e+00
        17         4        5.990326e-02
        18         4       -1.916161e+00
        19         4       -1.800612e+00
        20         4        1.852982e+00
        21         4       -5.332407e-01
        22         4        5.422227e-01
        23         4        1.421418e+00
        24         4        7.067789e-01
        25         4       -2.831930e-01
        26         4        4.368112e-01
        27         4        9.058003e-01
        28         4        4.582012e-01
        29         4        1.502791e-01
        30         4       -1.163755e-02
        31         4       -1.329147e+00
        32         4       -8.010912e-01
        33         4       -2.917856e-01
        34         4        1.470093e+00
        35         4       -1.631858e-02
        36         4       -2.868790e-01
        37         4       -2.392621e-01
        38         4        2.400702e-01
        39         4       -9.156947e-01
        40         4       -8.310490e-02
        41         4       -1.149972e+00
        42         4        3.020628e-01
        43         4       -1.948082e+00
        44         4       -5.440755e-01
        45         4        9.950174e-01
        46         4       -2.708873e-01
        47         4        2.445181e-03
        48         4       -4.249280e-01
        49         4       -1.229681e+00
        50         4       -2.148827e+00
        51         4        1.203918e-01
        52         4       -5.187778e-01
        53         4        5.212837e-01
        54         4       -3.089719e-01
        55         4       -2.520232e-01
        56         4       -1.754892e+00
        57         4        1.669792e+00
        58         4       -4.154429e-01
        59         4       -6.838525e-01
        60         4       -7.133702e-01
        61         4       -3.744525e-01
        62         4        6.628324e-03
        63         4       -1.915276e+00
        64         4        3.504620e-01
        65         4        3.881247e-01
        66         4        3.350358e-01
        67         4        4.874430e-01
        68         4       -2.422527e-01
        69         4       -1.728698e-01
        70         4        2.543574e-01
        71         4        1.233175e+00
        72         4        1.650235e+00
        73         4       -9.422958e-01
        74         4       -1.520944e-01
        75         4       -1.780068e+00
        76         4        8.639805e-01
        77         4        2.700996e-01
        78         4       -1.608100e+00
        79         4       -2.194840e-01
        80         4       -5.639275e-02
        81         4       -2.279915e+00
        82         4        5.863527e-01
        83         4        5.419042e-01
        84         4       -4.437500e-02
        85         4       -2.244576e-01
        86         4       -9.174337e-01
        87         4       -1.466433e-01
        88         4       -1.230764e+00
        89         4        2.989722e-01
        90         4        7.247665e-01
        91         4       -6.256886e-01
        92         4        7.864579e-01
        93         4        2.225615e-01
        94         4        1.245278e+00
        95         4       -1.240458e-01
        96         4        5.833267e-01
        97         4        1.620919e+00
        98         4        1.549894e+00
        99         4        1.850564e+00
       100         4       -2.371521e+00
         1         5       -3.551063e-02
         2         5        5.420592e-01
         3         5        2.951425e-01
         4         5        1.477407e+00
         5         5       -1.608019e+00
         6         5        1.880583e-01
         7         5        1.547342e+00
         8         5        1.330371e+00
         9         5       -5.606129e-01
        10         5        3.503684e-01
        11         5       -5.597579e-01
        12         5        7.670805e-01
        13         5        1.778517e+00
        14         5        7.463260e-01
        15         5        1.749677e-01
        16         5       -6.746237e-01
        17         5       -1.103625e+00
        18         5        2.917980e+00
        19         5        1.122369e-02
        20         5       -1.365949e+00
        21         5       -4.551291e-01
        22         5       -5.905080e-01
        23         5       -1.887923e+00
        24         5       -1.907886e-01
        25         5       -6.867070e-02
        26         5        1.063199e-01
        27         5       -9.381209e-02
        28         5        8.136856e-01
        29         5       -1.283562e+00
        30         5        5.247344e-01
        31         5        1.281633e-01
        32         5        1.359965e+00
        33         5       -3.420050e-01
        34         5       -1.505613e+00
        35         5        1.077158e+00
        36         5       -2.074317e+00
        37         5       -6.033880e-01
        38         5        6.397907e-02
        39         5       -1.127727e+00
        40         5        1.505195e+00
        41         5       -2.430932e+00
        42         5        4.695444e-01
        43         5        4.877150e-02
        44         5       -6.324740e-01
        45         5        1.719347e+00
        46         5       -1.216519e-01
        47         5       -3.338112e-01
        48         5        2.937524e-01
        49         5       -3.154625e-01
        50         5       -3.109916e-01
        51         5       -6.591022e-01
        52         5       -9.190950e-01
        53         5        8.173836e-01
        54         5       -6.958743e-01
        55         5        5.827699e-01
        56         5        8.200870e-01
        57         5       -1.616253e+00
        58         5       -1.101827e+00
        59         5       -8.367892e-01
        60         5       -7.065745e-01
        61         5       -8.304904e-01
        62         5       -1.062951e-01
        63         5        3.672438e-01
        64         5        5.036861e-01
        65         5        3.121658e-01
        66         5        5.666330e-01
        67         5        7.490438e-02
        68         5       -1.116262e+00
        69         5        7.730788e-01
        70         5       -8.646384e-02
        71         5       -3.762886e-01
        72         5       -5.655416e-01
        73         5       -4.551818e-02
        74         5        5.992127e-01
        75         5       -3.617713e-01
        76         5       -1.634785e+00
        77         5       -1.975780e-01
        78         5       -8.375542e-01
        79         5       -6.045191e-01
        80         5       -2.005587e+00
        81         5       -1.963328e+00
        82         5        3.748842e-01
        83         5       -1.165646e+00
        84         5       -4.307582e-02
        85         5        4.303914e-01
        86         5        7.416809e-01
        87         5       -8.661342e-02
        88         5       -2.404918e-01
        89         5        1.599469e+00
        90         5       -3.719664e-01
        91         5       -3.346845e-01
        92         5       -9.607332e-01
        93         5        1.590244e-01
        94         5       -3.441482e-01
        95         5       -8.607446e-02
        96         5       -4.894425e-03
        97         5        1.075174e+00
        98         5       -1.446759e+00
        99         5       -1.329270e-02
       100         5       -6.048456e-01
;

param theta:=
    1        6.364133e-01
    2        1.974276e+00
    3        1.598089e+00
    4       -7.120606e-01
    5        1.087142e+00
;
param X_true:=
    1        4.413407e+00
    2       -2.547870e+00
    3       -1.164938e+00
    4        8.250251e+00
    5       -7.061328e-01
    6        2.497215e+00
    7        4.024399e+00
    8       -2.202702e+00
    9        1.251909e-01
   10        9.627085e-01
   11        8.042646e-01
   12       -2.268571e-01
   13        1.310230e+00
   14       -3.704035e-01
   15        3.757477e+00
   16        8.140736e-02
   17       -1.901279e+00
   18        3.976446e+00
   19        1.460681e+00
   20       -3.776199e+00
   21        1.797993e+00
   22       -2.696247e+00
   23       -6.242468e+00
   24        9.099927e-01
   25       -2.940114e+00
   26        3.916265e+00
   27       -4.747589e+00
   28        1.301252e+00
   29       -1.934814e+00
   30        7.831225e-01
   31        3.194302e+00
   32        1.515791e+00
   33       -2.254994e+00
   34        3.128490e+00
   35        1.066702e+00
   36       -2.004988e+00
   37       -8.266843e-01
   38        7.144283e-01
   39       -4.526841e-01
   40        4.595865e+00
   41        2.691048e-01
   42        3.349264e-01
   43        2.539683e+00
   44       -1.591171e-01
   45       -1.368825e+00
   46        2.528558e+00
   47       -1.114610e+00
   48       -7.093257e-01
   49        3.391037e+00
   50        2.055284e+00
   51        9.626258e-01
   52       -2.241544e-01
   53        9.659194e-01
   54       -2.274653e+00
   55        2.187154e+00
   56        7.994508e-02
   57       -1.424100e+00
   58       -1.052482e+00
   59       -8.294550e-01
   60        2.990617e+00
   61        4.218065e+00
   62        6.971257e-01
   63        4.445761e+00
   64       -3.108743e-01
   65        5.171914e+00
   66       -2.356488e+00
   67        2.819148e-01
   68       -2.528979e+00
   69       -1.050077e-01
   70       -3.073877e+00
   71       -5.714181e+00
   72       -5.095606e+00
   73        1.574952e+00
   74       -2.345136e-01
   75       -2.105796e+00
   76       -1.190774e-01
   77       -1.670344e+00
   78       -8.954889e-01
   79        1.126472e-02
   80       -3.097775e+00
   81       -9.515683e-01
   82       -2.471216e+00
   83        1.520494e+00
   84       -2.722702e+00
   85       -2.296883e+00
   86        2.900754e+00
   87       -2.036426e+00
   88        9.139831e-01
   89       -2.045798e+00
   90       -2.343231e+00
   91        1.931845e+00
   92       -1.487125e+00
   93       -1.305781e+00
   94       -2.217165e+00
   95       -2.268797e-01
   96       -2.045720e+00
   97       -2.085356e+00
   98       -6.421222e+00
   99       -1.922809e+00
  100        2.905692e-02
;
param X:=
    1       -1.614438e+00
    2       -1.536391e+00
    3        6.842454e-01
    4        3.460548e-01
    5       -1.955223e-01
    6        1.969668e+00
    7        2.149194e+00
    8       -2.202702e+00
    9        7.379835e-01
   10        1.491443e+00
   11       -1.085699e+00
   12        2.867309e-01
   13        1.361785e+00
   14        1.265827e+00
   15       -5.287316e-01
   16        6.442385e-01
   17       -9.557001e-02
   18       -5.233166e-01
   19        5.709752e-01
   20       -1.647476e+00
   21       -1.376401e+00
   22       -2.696247e+00
   23       -6.242468e+00
   24        7.215797e-01
   25       -1.866756e-01
   26       -1.410061e-01
   27       -4.747589e+00
   28       -4.285342e-01
   29        2.714274e-01
   30        7.831225e-01
   31       -7.286917e-01
   32       -1.773041e-01
   33        1.111838e+00
   34       -1.171105e-01
   35       -1.271724e-01
   36       -1.762301e+00
   37        8.919589e-01
   38       -4.407879e-01
   39       -4.526841e-01
   40        4.595865e+00
   41        1.082319e+00
   42        3.349264e-01
   43        5.571077e-01
   44        1.039536e+00
   45        5.819627e-01
   46       -6.801981e-02
   47       -1.176745e-01
   48       -7.093257e-01
   49        8.647486e-01
   50        2.131383e-01
   51       -1.202942e+00
   52       -2.241544e-01
   53       -1.638243e+00
   54       -4.436923e-01
   55        1.308734e+00
   56        2.537661e-01
   57        7.711701e-01
   58        1.537573e+00
   59       -1.692593e-01
   60        1.107876e-01
   61       -7.321587e-01
   62       -8.646473e-01
   63       -7.960946e-01
   64       -1.354655e+00
   65       -1.172364e-01
   66       -2.356488e+00
   67       -9.506271e-02
   68       -2.639180e-01
   69       -1.050077e-01
   70       -6.774401e-01
   71        1.036559e+00
   72       -7.802163e-01
   73        4.682244e-01
   74        1.023459e+00
   75        1.256085e+00
   76       -2.200480e+00
   77       -1.806332e-01
   78       -8.954889e-01
   79       -2.914427e-01
   80       -3.097775e+00
   81       -9.515683e-01
   82        3.808810e-02
   83        1.638603e+00
   84        1.485273e-01
   85       -2.296883e+00
   86       -6.682345e-01
   87        3.017111e+00
   88       -6.849957e-01
   89       -1.554217e-01
   90       -3.987135e-01
   91        1.931845e+00
   92       -3.795090e-01
   93        3.033183e-01
   94        9.866839e-01
   95       -1.226541e+00
   96       -1.775711e+00
   97       -2.230133e+00
   98       -6.421222e+00
   99        1.257005e-01
  100        2.903611e-01
;
param outliervec:=
    1    1
    2    1
    3    1
    4    1
    5    1
    6    1
    7    1
    8    0
    9    1
   10    1
   11    1
   12    1
   13    1
   14    1
   15    1
   16    1
   17    1
   18    1
   19    1
   20    1
   21    1
   22    0
   23    0
   24    1
   25    1
   26    1
   27    0
   28    1
   29    1
   30    0
   31    1
   32    1
   33    1
   34    1
   35    1
   36    1
   37    1
   38    1
   39    0
   40    0
   41    1
   42    0
   43    1
   44    1
   45    1
   46    1
   47    1
   48    0
   49    1
   50    1
   51    1
   52    0
   53    1
   54    1
   55    1
   56    1
   57    1
   58    1
   59    1
   60    1
   61    1
   62    1
   63    1
   64    1
   65    1
   66    0
   67    1
   68    1
   69    0
   70    1
   71    1
   72    1
   73    1
   74    1
   75    1
   76    1
   77    1
   78    0
   79    1
   80    0
   81    0
   82    1
   83    1
   84    1
   85    0
   86    1
   87    1
   88    1
   89    1
   90    1
   91    0
   92    1
   93    1
   94    1
   95    1
   96    1
   97    1
   98    0
   99    1
  100    1
;